
(set-logic HORN)
(declare-fun zero_137 () Int)
(declare-fun succ_133 (Int) Int)
(declare-datatypes ((Bool_300 0)) (((false_300) (true_300))))
(declare-fun diseqBool_139 (Bool_300 Bool_300) Bool)
(declare-fun isfalse_139 (Bool_300) Bool)
(declare-fun istrue_139 (Bool_300) Bool)
(assert (isfalse_139 false_300))
(assert (istrue_139 true_300))
(assert (diseqBool_139 false_300 true_300))
(assert (diseqBool_139 true_300 false_300))
(declare-fun and_300 (Bool_300 Bool_300 Bool_300) Bool)
(declare-fun or_306 (Bool_300 Bool_300 Bool_300) Bool)
(declare-fun hence_300 (Bool_300 Bool_300 Bool_300) Bool)
(declare-fun not_304 (Bool_300 Bool_300) Bool)
(assert (and_300 false_300 false_300 false_300))
(assert (and_300 false_300 true_300 false_300))
(assert (and_300 false_300 false_300 true_300))
(assert (and_300 true_300 true_300 true_300))
(assert (or_306 false_300 false_300 false_300))
(assert (or_306 true_300 true_300 false_300))
(assert (or_306 true_300 false_300 true_300))
(assert (or_306 true_300 true_300 true_300))
(assert (hence_300 true_300 false_300 false_300))
(assert (hence_300 false_300 true_300 false_300))
(assert (hence_300 true_300 false_300 true_300))
(assert (hence_300 true_300 true_300 true_300))
(assert (not_304 true_300 false_300))
(assert (not_304 false_300 true_300))
(declare-fun diseqInt (Int Int) Bool)
(declare-fun p_371 (Int Int) Bool)
(declare-fun iszero_133 (Int) Bool)
(declare-fun issucc_133 (Int) Bool)
(assert (forall ((x_52780 Int))
	(p_371 x_52780 (succ_133 x_52780))))
(assert (iszero_133 zero_137))
(assert (forall ((x_52782 Int))
	(issucc_133 (succ_133 x_52782))))
(assert (forall ((x_52783 Int))
	(diseqInt zero_137 (succ_133 x_52783))))
(assert (forall ((x_52784 Int))
	(diseqInt (succ_133 x_52784) zero_137)))
(assert (forall ((x_52785 Int) (x_52786 Int))
	(=> (diseqInt x_52785 x_52786) (diseqInt (succ_133 x_52785) (succ_133 x_52786)))))
(declare-datatypes ((list_210 0)) (((nil_238) (cons_210 (head_420 Int) (tail_420 list_210)))))
(declare-fun diseqlist_210 (list_210 list_210) Bool)
(declare-fun head_421 (Int list_210) Bool)
(declare-fun tail_421 (list_210 list_210) Bool)
(declare-fun isnil_238 (list_210) Bool)
(declare-fun iscons_210 (list_210) Bool)
(assert (forall ((x_52788 Int) (x_52789 list_210))
	(head_421 x_52788 (cons_210 x_52788 x_52789))))
(assert (forall ((x_52788 Int) (x_52789 list_210))
	(tail_421 x_52789 (cons_210 x_52788 x_52789))))
(assert (isnil_238 nil_238))
(assert (forall ((x_52791 Int) (x_52792 list_210))
	(iscons_210 (cons_210 x_52791 x_52792))))
(assert (forall ((x_52793 Int) (x_52794 list_210))
	(diseqlist_210 nil_238 (cons_210 x_52793 x_52794))))
(assert (forall ((x_52795 Int) (x_52796 list_210))
	(diseqlist_210 (cons_210 x_52795 x_52796) nil_238)))
(assert (forall ((x_52797 Int) (x_52798 list_210) (x_52799 Int) (x_52800 list_210))
	(=> (diseqInt x_52797 x_52799) (diseqlist_210 (cons_210 x_52797 x_52798) (cons_210 x_52799 x_52800)))))
(assert (forall ((x_52797 Int) (x_52798 list_210) (x_52799 Int) (x_52800 list_210))
	(=> (diseqlist_210 x_52798 x_52800) (diseqlist_210 (cons_210 x_52797 x_52798) (cons_210 x_52799 x_52800)))))
(declare-fun take_48 (list_210 Int list_210) Bool)
(assert (forall ((x_52713 list_210) (z_1808 Int) (xs_583 list_210) (z_1807 Int))
	(=> (take_48 x_52713 z_1807 xs_583) (take_48 (cons_210 z_1808 x_52713) (succ_133 z_1807) (cons_210 z_1808 xs_583)))))
(assert (forall ((z_1807 Int))
	(take_48 nil_238 (succ_133 z_1807) nil_238)))
(assert (forall ((y_2028 list_210))
	(take_48 nil_238 zero_137 y_2028)))
(declare-fun plus_131 (Int Int Int) Bool)
(assert (forall ((x_52717 Int) (z_1809 Int) (y_2029 Int))
	(=> (plus_131 x_52717 z_1809 y_2029) (plus_131 (succ_133 x_52717) (succ_133 z_1809) y_2029))))
(assert (forall ((x_52718 Int))
	(plus_131 x_52718 zero_137 x_52718)))
(declare-fun minus_318 (Int Int Int) Bool)
(assert (forall ((x_52719 Int) (y_2031 Int) (z_1810 Int))
	(=> (minus_318 x_52719 z_1810 y_2031) (minus_318 x_52719 (succ_133 z_1810) (succ_133 y_2031)))))
(assert (forall ((z_1810 Int))
	(minus_318 zero_137 (succ_133 z_1810) zero_137)))
(assert (forall ((y_2030 Int))
	(minus_318 zero_137 zero_137 y_2030)))
(declare-fun nmsorttdhalf_5 (Int Int) Bool)
(assert (nmsorttdhalf_5 zero_137 (succ_133 zero_137)))
(assert (forall ((x_52724 Int) (x_52725 Int) (x_52726 Int) (y_2032 Int))
	(=> (and (diseqInt (succ_133 y_2032) (succ_133 zero_137)) (minus_318 x_52725 (succ_133 y_2032) (succ_133 (succ_133 zero_137))) (nmsorttdhalf_5 x_52726 x_52725) (plus_131 x_52724 (succ_133 zero_137) x_52726)) (nmsorttdhalf_5 x_52724 (succ_133 y_2032)))))
(assert (nmsorttdhalf_5 zero_137 (succ_133 zero_137)))
(assert (=> (diseqInt zero_137 (succ_133 zero_137)) (nmsorttdhalf_5 zero_137 zero_137)))
(declare-fun leq_51 (Bool_300 Int Int) Bool)
(assert (forall ((x_52730 Bool_300) (x_52697 Int) (z_1811 Int))
	(=> (leq_51 x_52730 z_1811 x_52697) (leq_51 x_52730 (succ_133 z_1811) (succ_133 x_52697)))))
(assert (forall ((z_1811 Int))
	(leq_51 false_300 (succ_133 z_1811) zero_137)))
(assert (forall ((y_2033 Int))
	(leq_51 true_300 zero_137 y_2033)))
(declare-fun lmerge_16 (list_210 list_210 list_210) Bool)
(assert (forall ((x_52736 list_210) (x_52700 Int) (x_52701 list_210) (z_1812 Int) (x_52699 list_210))
	(=> (and (lmerge_16 x_52736 x_52699 (cons_210 x_52700 x_52701)) (leq_51 true_300 z_1812 x_52700)) (lmerge_16 (cons_210 z_1812 x_52736) (cons_210 z_1812 x_52699) (cons_210 x_52700 x_52701)))))
(assert (forall ((x_52739 list_210) (x_52700 Int) (x_52701 list_210) (z_1812 Int) (x_52699 list_210))
	(=> (and (lmerge_16 x_52739 (cons_210 z_1812 x_52699) x_52701) (leq_51 false_300 z_1812 x_52700)) (lmerge_16 (cons_210 x_52700 x_52739) (cons_210 z_1812 x_52699) (cons_210 x_52700 x_52701)))))
(assert (forall ((z_1812 Int) (x_52699 list_210))
	(lmerge_16 (cons_210 z_1812 x_52699) (cons_210 z_1812 x_52699) nil_238)))
(assert (forall ((x_52741 list_210))
	(lmerge_16 x_52741 nil_238 x_52741)))
(declare-fun ordered_24 (Bool_300 list_210) Bool)
(assert (forall ((x_52742 Bool_300) (x_52743 Bool_300) (x_52744 Bool_300) (y_2036 Int) (xs_584 list_210) (y_2035 Int))
	(=> (and (leq_51 x_52743 y_2035 y_2036) (ordered_24 x_52744 (cons_210 y_2036 xs_584)) (and_300 x_52742 x_52743 x_52744)) (ordered_24 x_52742 (cons_210 y_2035 (cons_210 y_2036 xs_584))))))
(assert (forall ((y_2035 Int))
	(ordered_24 true_300 (cons_210 y_2035 nil_238))))
(assert (ordered_24 true_300 nil_238))
(declare-fun length_38 (Int list_210) Bool)
(assert (forall ((x_52747 Int) (x_52748 Int) (y_2037 Int) (l_40 list_210))
	(=> (and (length_38 x_52748 l_40) (plus_131 x_52747 (succ_133 zero_137) x_52748)) (length_38 x_52747 (cons_210 y_2037 l_40)))))
(assert (length_38 zero_137 nil_238))
(declare-fun drop_50 (list_210 Int list_210) Bool)
(assert (forall ((x_52751 list_210) (z_1815 Int) (xs_585 list_210) (z_1814 Int))
	(=> (drop_50 x_52751 z_1814 xs_585) (drop_50 x_52751 (succ_133 z_1814) (cons_210 z_1815 xs_585)))))
(assert (forall ((z_1814 Int))
	(drop_50 nil_238 (succ_133 z_1814) nil_238)))
(assert (forall ((x_52754 list_210))
	(drop_50 x_52754 zero_137 x_52754)))
(declare-fun nmsorttd_5 (list_210 list_210) Bool)
(assert (forall ((x_52757 list_210) (x_52758 list_210) (x_52759 list_210) (x_52760 list_210) (x_52761 list_210) (x_52755 Int) (k_13 Int) (x_52706 Int) (x_52707 list_210) (y_2039 Int))
	(=> (and (take_48 x_52758 k_13 (cons_210 y_2039 (cons_210 x_52706 x_52707))) (nmsorttd_5 x_52759 x_52758) (drop_50 x_52760 k_13 (cons_210 y_2039 (cons_210 x_52706 x_52707))) (nmsorttd_5 x_52761 x_52760) (lmerge_16 x_52757 x_52759 x_52761) (length_38 x_52755 (cons_210 y_2039 (cons_210 x_52706 x_52707))) (nmsorttdhalf_5 k_13 x_52755)) (nmsorttd_5 x_52757 (cons_210 y_2039 (cons_210 x_52706 x_52707))))))
(assert (forall ((y_2039 Int))
	(nmsorttd_5 (cons_210 y_2039 nil_238) (cons_210 y_2039 nil_238))))
(assert (nmsorttd_5 nil_238 nil_238))
(assert (forall ((x_52765 Int) (x_52766 Int) (x_52767 Int) (x_52768 Int) (x_52708 Int) (y_2040 Int) (z_1817 Int))
	(=> (and true (diseqInt x_52766 x_52768) (plus_131 x_52765 y_2040 z_1817) (plus_131 x_52766 x_52708 x_52765) (plus_131 x_52767 x_52708 y_2040) (plus_131 x_52768 x_52767 z_1817)) false)))
(assert (forall ((x_52769 Int) (x_52770 Int) (x_52709 Int) (y_2041 Int))
	(=> (and true (diseqInt x_52769 x_52770) (plus_131 x_52769 x_52709 y_2041) (plus_131 x_52770 y_2041 x_52709)) false)))
(assert (forall ((x_52771 Int) (x_52710 Int))
	(=> (and true (diseqInt x_52771 x_52710) (plus_131 x_52771 x_52710 zero_137)) false)))
(assert (forall ((x_52772 Int) (x_52711 Int))
	(=> (and true (diseqInt x_52772 x_52711) (plus_131 x_52772 zero_137 x_52711)) false)))
(assert (forall ((x_52773 list_210) (xs_586 list_210))
	(=> (and true (nmsorttd_5 x_52773 xs_586) (ordered_24 false_300 x_52773)) false)))
(check-sat)
